# Objective value = 0
FairCross 0
y_0_WD_GL 0
y_1_WD_GL 0
y_1_WD_EG 0
y_1_GL_EG 0
y_2_WD_GL 0
y_2_WD_EG 0
y_2_GL_EG 0
y_3_WD_GL 0
y_3_WD_EG 0
y_3_GL_EG 0
y_4_WD_GL 0
y_4_WD_EG 0
y_4_GL_EG 0
y_5_WD_GL 0
y_5_WD_EG 0
y_5_GL_EG 1
y_6_WD_GL 0
y_6_WD_EG 0
y_6_GL_EG 1
y_7_WD_GL 0
y_7_WD_EG 0
y_7_GL_EG 0
y_8_WD_GL 0
y_8_WD_EG 0
y_8_GL_EG 0
y_9_WD_GL 0
y_9_WD_EG 0
y_9_GL_EG 0
y_10_WD_GL 0
y_10_WD_EG 0
y_10_GL_EG 0
y_11_WD_GL 0
y_11_WD_EG 0
y_11_GL_EG 0
y_12_WD_GL 0
y_12_WD_EG 0
y_12_WD_FM 0
y_12_GL_EG 0
y_12_GL_FM 0
y_12_EG_FM 0
y_13_WD_GL 0
y_13_WD_EG 0
y_13_WD_FM 0
y_13_GL_EG 0
y_13_GL_FM 0
y_13_EG_FM 0
y_14_WD_GL 0
y_14_WD_EG 0
y_14_WD_FM 0
y_14_GL_EG 0
y_14_GL_FM 0
y_14_EG_FM 0
y_15_WD_GL 0
y_15_WD_EG 0
y_15_WD_FM 0
y_15_GL_EG 0
y_15_GL_FM 0
y_15_EG_FM 0
y_16_WD_GL 0
y_16_WD_EG 0
y_16_WD_FM 0
y_16_GL_EG 0
y_16_GL_FM 0
y_16_EG_FM 0
y_17_WD_GL 0
y_17_WD_EG 0
y_17_WD_FM 0
y_17_GL_EG 0
y_17_GL_FM 0
y_17_EG_FM 0
y_18_WD_GL 0
y_18_WD_EG 0
y_18_WD_FM 0
y_18_GL_EG 0
y_18_GL_FM 0
y_18_EG_FM 0
y_19_WD_GL 0
y_19_WD_EG 0
y_19_WD_FM 0
y_19_GL_EG 0
y_19_GL_FM 1
y_19_EG_FM 1
y_20_WD_GL 0
y_20_WD_EG 0
y_20_WD_FM 0
y_20_GL_EG 0
y_20_GL_FM 1
y_20_EG_FM 1
y_21_WD_GL 0
y_21_WD_EG 0
y_21_WD_FM 0
y_21_GL_EG 0
y_21_GL_FM 0
y_21_EG_FM 0
y_22_WD_GL 0
y_22_WD_EG 0
y_22_WD_FM 0
y_22_GL_EG 0
y_22_GL_FM 0
y_22_EG_FM 0
y_23_WD_GL 1
y_23_WD_EG 0
y_23_WD_FM 0
y_23_GL_EG 0
y_23_GL_FM 0
y_23_EG_FM 0
y_24_WD_GL 0
y_24_WD_EG 0
y_24_WD_FM 0
y_24_GL_EG 0
y_24_GL_FM 0
y_24_EG_FM 1
y_25_WD_GL 1
y_25_WD_EG 0
y_25_WD_FM 0
y_25_GL_EG 0
y_25_GL_FM 0
y_25_EG_FM 0
y_26_WD_GL 0
y_26_WD_EG 0
y_26_WD_FM 0
y_26_GL_EG 0
y_26_GL_FM 0
y_26_EG_FM 0
y_27_WD_GL 0
y_27_WD_EG 0
y_27_WD_FM 0
y_27_GL_EG 0
y_27_GL_FM 0
y_27_EG_FM 0
y_28_WD_GL 0
y_28_WD_EG 0
y_28_WD_FM 0
y_28_GL_EG 0
y_28_GL_FM 0
y_28_EG_FM 0
y_29_WD_GL 0
y_29_WD_EG 0
y_29_WD_FM 0
y_29_GL_EG 0
y_29_GL_FM 1
y_29_EG_FM 0
y_30_WD_GL 0
y_30_WD_EG 0
y_30_WD_FM 0
y_30_GL_EG 0
y_30_GL_FM 0
y_30_EG_FM 0
y_31_WD_GL 0
y_31_WD_EG 0
y_31_WD_FM 0
y_31_WD_AT 0
y_31_GL_EG 0
y_31_GL_FM 0
y_31_EG_FM 0
y_31_EG_AT 0
y_31_FM_AT 0
y_32_WD_GL 0
y_32_WD_EG 0
y_32_WD_FM 0
y_32_WD_AT 0
y_32_GL_EG 0
y_32_GL_FM 0
y_32_EG_FM 0
y_32_EG_AT 0
y_32_FM_AT 0
y_33_WD_GL 0
y_33_WD_EG 0
y_33_WD_FM 0
y_33_WD_AT 0
y_33_GL_EG 0
y_33_GL_FM 0
y_33_EG_FM 0
y_33_EG_AT 1
y_33_FM_AT 0
y_34_WD_GL 0
y_34_WD_EG 0
y_34_WD_FM 0
y_34_WD_AT 0
y_34_GL_EG 0
y_34_GL_FM 0
y_34_EG_FM 0
y_34_EG_AT 0
y_34_FM_AT 0
y_35_WD_GL 0
y_35_WD_EG 0
y_35_WD_FM 0
y_35_WD_AT 1
y_35_GL_EG 0
y_35_GL_FM 0
y_35_EG_FM 0
y_35_EG_AT 0
y_35_FM_AT 1
y_36_WD_GL 0
y_36_WD_EG 0
y_36_WD_FM 0
y_36_WD_AT 0
y_36_GL_EG 0
y_36_GL_FM 0
y_36_EG_FM 0
y_36_EG_AT 0
y_36_FM_AT 0
y_37_WD_GL 0
y_37_WD_EG 0
y_37_WD_FM 1
y_37_WD_AT 0
y_37_GL_EG 0
y_37_GL_FM 0
y_37_EG_FM 0
y_37_EG_AT 0
y_37_FM_AT 0
y_38_WD_GL 0
y_38_WD_EG 0
y_38_WD_FM 0
y_38_WD_AT 0
y_38_GL_EG 0
y_38_GL_FM 0
y_38_EG_FM 0
y_38_EG_AT 0
y_38_FM_AT 0
y_39_GL_EG 0
y_39_GL_FM 0
y_39_EG_FM 0
y_31_GL_AT 0
y_32_GL_AT 0
y_33_GL_AT 0
y_34_GL_AT 0
y_35_GL_AT 1
y_36_GL_AT 0
y_37_GL_AT 0
y_38_GL_AT 0
x_0_WD_GL 0
x_1_WD_GL 0
x_2_WD_GL 0
x_1_WD_EG 0
x_2_WD_EG 0
x_1_GL_EG 0
x_2_GL_EG 0
x_3_WD_GL 0
x_3_WD_EG 0
x_3_GL_EG 0
x_4_WD_GL 0
x_4_WD_EG 0
x_4_GL_EG 0
x_5_WD_GL 0
x_5_WD_EG 0
x_5_GL_EG 0
x_6_WD_GL 0
x_6_WD_EG 0
x_6_GL_EG 1
x_7_WD_GL 0
x_7_WD_EG 0
x_7_GL_EG 0
x_8_WD_GL 0
x_8_WD_EG 0
x_8_GL_EG 0
x_9_WD_GL 0
x_9_WD_EG 0
x_9_GL_EG 0
x_10_WD_GL 0
x_10_WD_EG 0
x_10_GL_EG 0
x_11_WD_GL 0
x_11_WD_EG 0
x_11_GL_EG 0
x_12_WD_GL 0
x_12_WD_EG 0
x_12_GL_EG 0
x_13_WD_GL 0
x_13_WD_EG 0
x_12_WD_FM 0
x_13_WD_FM 0
x_13_GL_EG 0
x_12_GL_FM 0
x_13_GL_FM 0
x_12_EG_FM 0
x_13_EG_FM 0
x_14_WD_GL 0
x_14_WD_EG 0
x_14_WD_FM 0
x_14_GL_EG 0
x_14_GL_FM 0
x_14_EG_FM 0
x_15_WD_GL 0
x_15_WD_EG 0
x_15_WD_FM 0
x_15_GL_EG 0
x_15_GL_FM 0
x_15_EG_FM 0
x_16_WD_GL 0
x_16_WD_EG 0
x_16_WD_FM 0
x_16_GL_EG 0
x_16_GL_FM 0
x_16_EG_FM 0
x_17_WD_GL 0
x_17_WD_EG 0
x_17_WD_FM 0
x_17_GL_EG 0
x_17_GL_FM 0
x_17_EG_FM 0
x_18_WD_GL 0
x_18_WD_EG 0
x_18_WD_FM 0
x_18_GL_EG 0
x_18_GL_FM 0
x_18_EG_FM 0
x_19_WD_GL 0
x_19_WD_EG 0
x_19_WD_FM 0
x_19_GL_EG 0
x_19_GL_FM 0
x_19_EG_FM 0
x_20_WD_GL 0
x_20_WD_EG 0
x_20_WD_FM 0
x_20_GL_EG 0
x_20_GL_FM 1
x_20_EG_FM 1
x_21_WD_GL 0
x_21_WD_EG 0
x_21_WD_FM 0
x_21_GL_EG 0
x_21_GL_FM 0
x_21_EG_FM 0
x_22_WD_GL 0
x_22_WD_EG 0
x_22_WD_FM 0
x_22_GL_EG 0
x_22_GL_FM 0
x_22_EG_FM 0
x_23_WD_GL 0
x_23_WD_EG 0
x_23_WD_FM 0
x_23_GL_EG 0
x_23_GL_FM 0
x_23_EG_FM 0
x_24_WD_GL 1
x_24_WD_EG 0
x_24_WD_FM 0
x_24_GL_EG 0
x_24_GL_FM 0
x_24_EG_FM 0
x_25_WD_GL 1
x_25_WD_EG 0
x_25_WD_FM 0
x_25_GL_EG 0
x_25_GL_FM 0
x_25_EG_FM 1
x_26_WD_GL 0
x_26_WD_EG 0
x_26_WD_FM 0
x_26_GL_EG 0
x_26_GL_FM 0
x_26_EG_FM 1
x_27_WD_GL 0
x_27_WD_EG 0
x_27_WD_FM 0
x_27_GL_EG 0
x_27_GL_FM 0
x_27_EG_FM 1
x_28_WD_GL 0
x_28_WD_EG 0
x_28_WD_FM 0
x_28_GL_EG 0
x_28_GL_FM 0
x_28_EG_FM 1
x_29_WD_GL 0
x_29_WD_EG 0
x_29_WD_FM 0
x_29_GL_EG 0
x_29_GL_FM 0
x_29_EG_FM 1
x_30_WD_GL 0
x_30_WD_EG 0
x_30_WD_FM 0
x_30_GL_EG 0
x_30_GL_FM 1
x_30_EG_FM 1
x_31_WD_GL 0
x_31_WD_EG 0
x_31_WD_FM 0
x_31_GL_EG 0
x_31_GL_FM 1
x_31_EG_FM 1
x_32_WD_GL 0
x_32_WD_EG 0
x_32_WD_FM 0
x_31_WD_AT 0
x_32_WD_AT 0
x_32_GL_EG 0
x_32_GL_FM 1
x_31_GL_AT 0
x_32_GL_AT 0
x_32_EG_FM 1
x_31_EG_AT 0
x_32_EG_AT 0
x_31_FM_AT 0
x_32_FM_AT 0
x_33_WD_GL 0
x_33_WD_EG 0
x_33_WD_FM 0
x_33_WD_AT 0
x_33_GL_EG 0
x_33_GL_FM 1
x_33_GL_AT 0
x_33_EG_FM 1
x_33_EG_AT 0
x_33_FM_AT 0
x_34_WD_GL 0
x_34_WD_EG 0
x_34_WD_FM 0
x_34_WD_AT 0
x_34_GL_EG 0
x_34_GL_FM 1
x_34_GL_AT 0
x_34_EG_FM 1
x_34_EG_AT 1
x_34_FM_AT 0
x_35_WD_GL 0
x_35_WD_EG 0
x_35_WD_FM 0
x_35_WD_AT 0
x_35_GL_EG 0
x_35_GL_FM 1
x_35_GL_AT 0
x_35_EG_FM 1
x_35_EG_AT 1
x_35_FM_AT 0
x_36_WD_GL 0
x_36_WD_EG 0
x_36_WD_FM 0
x_36_WD_AT 1
x_36_GL_EG 0
x_36_GL_FM 1
x_36_GL_AT 1
x_36_EG_FM 1
x_36_EG_AT 1
x_36_FM_AT 1
x_37_WD_GL 0
x_37_WD_EG 0
x_37_WD_FM 0
x_37_WD_AT 1
x_37_GL_EG 0
x_37_GL_FM 1
x_37_GL_AT 1
x_37_EG_FM 1
x_37_EG_AT 1
x_37_FM_AT 1
x_38_WD_GL 0
x_38_WD_EG 0
x_38_WD_FM 1
x_38_WD_AT 1
x_38_GL_EG 0
x_38_GL_FM 1
x_38_GL_AT 1
x_38_EG_FM 1
x_38_EG_AT 1
x_38_FM_AT 1
x_39_WD_GL 0
x_39_WD_EG 0
x_39_WD_FM 1
x_39_WD_AT 1
x_39_GL_EG 0
x_39_GL_FM 1
x_39_GL_AT 1
x_39_EG_FM 1
x_39_EG_AT 1
x_39_FM_AT 1
x_40_GL_EG 0
x_40_GL_FM 1
x_40_EG_FM 1
x_0_GL_WD 1
x_1_GL_WD 1
x_1_EG_WD 1
x_1_EG_GL 1
x_2_GL_WD 1
x_2_EG_WD 1
x_2_EG_GL 1
x_3_GL_WD 1
x_3_EG_WD 1
x_3_EG_GL 1
x_4_GL_WD 1
x_4_EG_WD 1
x_4_EG_GL 1
x_5_GL_WD 1
x_5_EG_WD 1
x_5_EG_GL 1
x_6_GL_WD 1
x_6_EG_WD 1
x_6_EG_GL 0
x_7_GL_WD 1
x_7_EG_WD 1
x_7_EG_GL 1
x_8_GL_WD 1
x_8_EG_WD 1
x_8_EG_GL 1
x_9_GL_WD 1
x_9_EG_WD 1
x_9_EG_GL 1
x_10_GL_WD 1
x_10_EG_WD 1
x_10_EG_GL 1
x_11_GL_WD 1
x_11_EG_WD 1
x_11_EG_GL 1
x_12_GL_WD 1
x_12_EG_WD 1
x_12_FM_WD 1
x_12_EG_GL 1
x_12_FM_GL 1
x_12_FM_EG 1
x_13_GL_WD 1
x_13_EG_WD 1
x_13_FM_WD 1
x_13_EG_GL 1
x_13_FM_GL 1
x_13_FM_EG 1
x_14_GL_WD 1
x_14_EG_WD 1
x_14_FM_WD 1
x_14_EG_GL 1
x_14_FM_GL 1
x_14_FM_EG 1
x_15_GL_WD 1
x_15_EG_WD 1
x_15_FM_WD 1
x_15_EG_GL 1
x_15_FM_GL 1
x_15_FM_EG 1
x_16_GL_WD 1
x_16_EG_WD 1
x_16_FM_WD 1
x_16_EG_GL 1
x_16_FM_GL 1
x_16_FM_EG 1
x_17_GL_WD 1
x_17_EG_WD 1
x_17_FM_WD 1
x_17_EG_GL 1
x_17_FM_GL 1
x_17_FM_EG 1
x_18_GL_WD 1
x_18_EG_WD 1
x_18_FM_WD 1
x_18_EG_GL 1
x_18_FM_GL 1
x_18_FM_EG 1
x_19_GL_WD 1
x_19_EG_WD 1
x_19_FM_WD 1
x_19_EG_GL 1
x_19_FM_GL 1
x_19_FM_EG 1
x_20_GL_WD 1
x_20_EG_WD 1
x_20_FM_WD 1
x_20_EG_GL 1
x_20_FM_GL 0
x_20_FM_EG 0
x_21_GL_WD 1
x_21_EG_WD 1
x_21_FM_WD 1
x_21_EG_GL 1
x_21_FM_GL 1
x_21_FM_EG 1
x_22_GL_WD 1
x_22_EG_WD 1
x_22_FM_WD 1
x_22_EG_GL 1
x_22_FM_GL 1
x_22_FM_EG 1
x_23_GL_WD 1
x_23_EG_WD 1
x_23_FM_WD 1
x_23_EG_GL 1
x_23_FM_GL 1
x_23_FM_EG 1
x_24_GL_WD 0
x_24_EG_WD 1
x_24_FM_WD 1
x_24_EG_GL 1
x_24_FM_GL 1
x_24_FM_EG 1
x_25_GL_WD 0
x_25_EG_WD 1
x_25_FM_WD 1
x_25_EG_GL 1
x_25_FM_GL 1
x_25_FM_EG 0
x_26_GL_WD 1
x_26_EG_WD 1
x_26_FM_WD 1
x_26_EG_GL 1
x_26_FM_GL 1
x_26_FM_EG 0
x_27_GL_WD 1
x_27_EG_WD 1
x_27_FM_WD 1
x_27_EG_GL 1
x_27_FM_GL 1
x_27_FM_EG 0
x_28_GL_WD 1
x_28_EG_WD 1
x_28_FM_WD 1
x_28_EG_GL 1
x_28_FM_GL 1
x_28_FM_EG 0
x_29_GL_WD 1
x_29_EG_WD 1
x_29_FM_WD 1
x_29_EG_GL 1
x_29_FM_GL 1
x_29_FM_EG 0
x_30_GL_WD 1
x_30_EG_WD 1
x_30_FM_WD 1
x_30_EG_GL 1
x_30_FM_GL 0
x_30_FM_EG 0
x_31_GL_WD 1
x_31_EG_WD 1
x_31_FM_WD 1
x_31_AT_WD 1
x_31_EG_GL 1
x_31_FM_GL 0
x_31_AT_GL 1
x_31_FM_EG 0
x_31_AT_EG 1
x_31_AT_FM 1
x_32_GL_WD 1
x_32_EG_WD 1
x_32_FM_WD 1
x_32_AT_WD 1
x_32_EG_GL 1
x_32_FM_GL 0
x_32_AT_GL 1
x_32_FM_EG 0
x_32_AT_EG 1
x_32_AT_FM 1
x_33_GL_WD 1
x_33_EG_WD 1
x_33_FM_WD 1
x_33_AT_WD 1
x_33_EG_GL 1
x_33_FM_GL 0
x_33_AT_GL 1
x_33_FM_EG 0
x_33_AT_EG 1
x_33_AT_FM 1
x_34_GL_WD 1
x_34_EG_WD 1
x_34_FM_WD 1
x_34_AT_WD 1
x_34_EG_GL 1
x_34_FM_GL 0
x_34_AT_GL 1
x_34_FM_EG 0
x_34_AT_EG 0
x_34_AT_FM 1
x_35_GL_WD 1
x_35_EG_WD 1
x_35_FM_WD 1
x_35_AT_WD 1
x_35_EG_GL 1
x_35_FM_GL 0
x_35_AT_GL 1
x_35_FM_EG 0
x_35_AT_EG 0
x_35_AT_FM 1
x_36_GL_WD 1
x_36_EG_WD 1
x_36_FM_WD 1
x_36_AT_WD 0
x_36_EG_GL 1
x_36_FM_GL 0
x_36_AT_GL 0
x_36_FM_EG 0
x_36_AT_EG 0
x_36_AT_FM 0
x_37_GL_WD 1
x_37_EG_WD 1
x_37_FM_WD 1
x_37_AT_WD 0
x_37_EG_GL 1
x_37_FM_GL 0
x_37_AT_GL 0
x_37_FM_EG 0
x_37_AT_EG 0
x_37_AT_FM 0
x_38_GL_WD 1
x_38_EG_WD 1
x_38_FM_WD 0
x_38_AT_WD 0
x_38_EG_GL 1
x_38_FM_GL 0
x_38_AT_GL 0
x_38_FM_EG 0
x_38_AT_EG 0
x_38_AT_FM 0
x_39_GL_WD 1
x_39_EG_WD 1
x_39_FM_WD 0
x_39_AT_WD 0
x_39_EG_GL 1
x_39_FM_GL 0
x_39_AT_GL 0
x_39_FM_EG 0
x_39_AT_EG 0
x_39_AT_FM 0
x_40_EG_GL 1
x_40_FM_GL 0
x_40_FM_EG 0
